(set-logic QF_LIA)
(declare-fun x0 () Int)
(declare-fun x1 () Int)
(declare-fun x2 () Int)
(declare-fun x3 () Int)
(declare-fun x4 () Int)
(declare-fun x5 () Int)
(declare-fun x6 () Int)
(declare-fun x7 () Int)
(declare-fun x8 () Int)
(declare-fun x9 () Int)
(declare-fun A0 () Bool)
(declare-fun A1 () Bool)
(declare-fun A2 () Bool)
(declare-fun A3 () Bool)
(declare-fun A4 () Bool)
(declare-fun A5 () Bool)
(declare-fun A6 () Bool)
(declare-fun A7 () Bool)
(declare-fun A8 () Bool)
(declare-fun A9 () Bool)
(assert (let ((.def_0 (not A0))) (let ((.def_1 (not A2))) (let ((.def_2 (and .def_1 .def_0))) (let ((.def_3 (* 1 x6))) (let ((.def_4 (< .def_3 1))) (let ((.def_5 (* (- 1) x2))) (let ((.def_6 (* 1 x4))) (let ((.def_7 (+ .def_6 .def_5))) (let ((.def_8 (< .def_7 (- 1)))) (let ((.def_9 (not .def_8))) (let ((.def_10 (and .def_9 .def_4))) (let ((.def_11 (and .def_10 .def_2))) (let ((.def_12 (* 1 x7))) (let ((.def_13 (+ .def_12 .def_6))) (let ((.def_14 (< .def_13 (- 1)))) (let ((.def_15 (not A4))) (let ((.def_16 (and .def_15 .def_14))) (let ((.def_17 (not .def_16))) (let ((.def_18 (* 1 x9))) (let ((.def_19 (< .def_18 (- 1)))) (let ((.def_20 (and .def_19 .def_15))) (let ((.def_21 (= .def_20 .def_17))) (let ((.def_22 (not .def_21))) (let ((.def_23 (= .def_22 .def_11))) (let ((.def_24 (* (- 1) x1))) (let ((.def_25 (< .def_24 1))) (let ((.def_26 (not .def_25))) (let ((.def_27 (* (- 1) x9))) (let ((.def_28 (+ .def_24 .def_27))) (let ((.def_29 (< .def_28 (- 1)))) (let ((.def_30 (and .def_29 .def_26))) (let ((.def_31 (* 1 x8))) (let ((.def_32 (+ .def_31 .def_18))) (let ((.def_33 (< .def_32 1))) (let ((.def_34 (not .def_33))) (let ((.def_35 (* 1 x1))) (let ((.def_36 (+ .def_12 .def_35))) (let ((.def_37 (< .def_36 (- 1)))) (let ((.def_38 (not .def_37))) (let ((.def_39 (or .def_38 .def_34))) (let ((.def_40 (= .def_39 .def_30))) (let ((.def_41 (not A9))) (let ((.def_42 (or .def_15 .def_41))) (let ((.def_43 (not .def_42))) (let ((.def_44 (* (- 1) x7))) (let ((.def_45 (< .def_44 (- 1)))) (let ((.def_46 (not .def_45))) (let ((.def_47 (or .def_19 .def_46))) (let ((.def_48 (and .def_47 .def_43))) (let ((.def_49 (and .def_48 .def_40))) (let ((.def_50 (and .def_49 .def_23))) (let ((.def_51 (not .def_50))) (let ((.def_52 (* (- 1) x6))) (let ((.def_53 (< .def_52 1))) (let ((.def_54 (* (- 1) x3))) (let ((.def_55 (+ .def_44 .def_54))) (let ((.def_56 (< .def_55 1))) (let ((.def_57 (not .def_56))) (let ((.def_58 (and .def_57 .def_53))) (let ((.def_59 (not .def_58))) (let ((.def_60 (< .def_35 (- 1)))) (let ((.def_61 (not .def_60))) (let ((.def_62 (and A5 .def_61))) (let ((.def_63 (or .def_62 .def_59))) (let ((.def_64 (not .def_63))) (let ((.def_65 (+ .def_12 .def_5))) (let ((.def_66 (< .def_65 1))) (let ((.def_67 (= .def_66 A4))) (let ((.def_68 (not .def_67))) (let ((.def_69 (and A6 A1))) (let ((.def_70 (not .def_69))) (let ((.def_71 (or .def_70 .def_68))) (let ((.def_72 (not .def_71))) (let ((.def_73 (= .def_72 .def_64))) (let ((.def_74 (not A7))) (let ((.def_75 (and .def_74 A1))) (let ((.def_76 (not .def_75))) (let ((.def_77 (* 1 x5))) (let ((.def_78 (+ .def_24 .def_77))) (let ((.def_79 (< .def_78 1))) (let ((.def_80 (not .def_79))) (let ((.def_81 (and A0 .def_80))) (let ((.def_82 (not .def_81))) (let ((.def_83 (and .def_82 .def_76))) (let ((.def_84 (not .def_83))) (let ((.def_85 (* (- 1) x0))) (let ((.def_86 (+ .def_52 .def_85))) (let ((.def_87 (< .def_86 1))) (let ((.def_88 (or A9 .def_87))) (let ((.def_89 (+ .def_6 .def_85))) (let ((.def_90 (< .def_89 (- 1)))) (let ((.def_91 (not .def_90))) (let ((.def_92 (= A3 .def_91))) (let ((.def_93 (or .def_92 .def_88))) (let ((.def_94 (not .def_93))) (let ((.def_95 (and .def_94 .def_84))) (let ((.def_96 (not .def_95))) (let ((.def_97 (or .def_96 .def_73))) (let ((.def_98 (or .def_97 .def_51))) (let ((.def_99 (not .def_98))) (let ((.def_100 (= A4 A2))) (let ((.def_101 (* 1 x3))) (let ((.def_102 (< .def_101 (- 1)))) (let ((.def_103 (not .def_102))) (let ((.def_104 (and .def_103 .def_0))) (let ((.def_105 (not .def_104))) (let ((.def_106 (or .def_105 .def_100))) (let ((.def_107 (not .def_106))) (let ((.def_108 (not A3))) (let ((.def_109 (and A0 .def_108))) (let ((.def_110 (not .def_109))) (let ((.def_111 (* 1 x0))) (let ((.def_112 (+ .def_24 .def_111))) (let ((.def_113 (< .def_112 (- 1)))) (let ((.def_114 (not .def_113))) (let ((.def_115 (and .def_74 .def_114))) (let ((.def_116 (or .def_115 .def_110))) (let ((.def_117 (or .def_116 .def_107))) (let ((.def_118 (not .def_117))) (let ((.def_119 (and A9 A5))) (let ((.def_120 (not .def_119))) (let ((.def_121 (or .def_108 A0))) (let ((.def_122 (not .def_121))) (let ((.def_123 (or .def_122 .def_120))) (let ((.def_124 (not .def_123))) (let ((.def_125 (or A1 .def_1))) (let ((.def_126 (not A8))) (let ((.def_127 (and .def_74 .def_126))) (let ((.def_128 (not .def_127))) (let ((.def_129 (and .def_128 .def_125))) (let ((.def_130 (not .def_129))) (let ((.def_131 (and .def_130 .def_124))) (let ((.def_132 (not .def_131))) (let ((.def_133 (and .def_132 .def_118))) (let ((.def_134 (not .def_133))) (let ((.def_135 (or .def_102 .def_103))) (let ((.def_136 (not .def_135))) (let ((.def_137 (not A1))) (let ((.def_138 (and .def_137 .def_1))) (let ((.def_139 (or .def_138 .def_136))) (let ((.def_140 (not .def_139))) (let ((.def_141 (not A6))) (let ((.def_142 (or A8 .def_141))) (let ((.def_143 (* (- 1) x4))) (let ((.def_144 (+ .def_85 .def_143))) (let ((.def_145 (< .def_144 1))) (let ((.def_146 (and A5 .def_145))) (let ((.def_147 (not .def_146))) (let ((.def_148 (and .def_147 .def_142))) (let ((.def_149 (not .def_148))) (let ((.def_150 (or .def_149 .def_140))) (let ((.def_151 (and A0 A4))) (let ((.def_152 (not .def_151))) (let ((.def_153 (+ .def_31 .def_35))) (let ((.def_154 (< .def_153 (- 1)))) (let ((.def_155 (and A5 .def_154))) (let ((.def_156 (and .def_155 .def_152))) (let ((.def_157 (* (- 1) x8))) (let ((.def_158 (+ .def_27 .def_157))) (let ((.def_159 (< .def_158 1))) (let ((.def_160 (= .def_159 .def_0))) (let ((.def_161 (not .def_160))) (let ((.def_162 (< .def_157 (- 1)))) (let ((.def_163 (or .def_162 .def_0))) (let ((.def_164 (not .def_163))) (let ((.def_165 (and .def_164 .def_161))) (let ((.def_166 (or .def_165 .def_156))) (let ((.def_167 (not .def_166))) (let ((.def_168 (or .def_167 .def_150))) (let ((.def_169 (not .def_168))) (let ((.def_170 (and .def_169 .def_134))) (let ((.def_171 (not .def_170))) (let ((.def_172 (or .def_171 .def_99))) (let ((.def_173 (not .def_172))) (let ((.def_174 (or A0 .def_141))) (let ((.def_175 (< .def_24 (- 1)))) (let ((.def_176 (+ .def_101 .def_52))) (let ((.def_177 (< .def_176 (- 1)))) (let ((.def_178 (not .def_177))) (let ((.def_179 (or .def_178 .def_175))) (let ((.def_180 (not .def_179))) (let ((.def_181 (and .def_180 .def_174))) (let ((.def_182 (= .def_0 A4))) (let ((.def_183 (not .def_182))) (let ((.def_184 (and .def_1 .def_126))) (let ((.def_185 (or .def_184 .def_183))) (let ((.def_186 (or .def_185 .def_181))) (let ((.def_187 (not A5))) (let ((.def_188 (= A9 .def_187))) (let ((.def_189 (* 1 x2))) (let ((.def_190 (+ .def_157 .def_189))) (let ((.def_191 (< .def_190 1))) (let ((.def_192 (not .def_191))) (let ((.def_193 (or A6 .def_192))) (let ((.def_194 (and .def_193 .def_188))) (let ((.def_195 (+ .def_24 .def_85))) (let ((.def_196 (< .def_195 (- 1)))) (let ((.def_197 (or A5 .def_196))) (let ((.def_198 (not .def_197))) (let ((.def_199 (and .def_41 A1))) (let ((.def_200 (and .def_199 .def_198))) (let ((.def_201 (or .def_200 .def_194))) (let ((.def_202 (= .def_201 .def_186))) (let ((.def_203 (< .def_77 1))) (let ((.def_204 (and .def_203 .def_108))) (let ((.def_205 (+ .def_101 .def_143))) (let ((.def_206 (< .def_205 (- 1)))) (let ((.def_207 (not .def_206))) (let ((.def_208 (and .def_207 .def_74))) (let ((.def_209 (or .def_208 .def_204))) (let ((.def_210 (not .def_209))) (let ((.def_211 (and .def_74 .def_175))) (let ((.def_212 (and .def_126 A8))) (let ((.def_213 (or .def_212 .def_211))) (let ((.def_214 (or .def_213 .def_210))) (let ((.def_215 (+ .def_18 .def_189))) (let ((.def_216 (< .def_215 1))) (let ((.def_217 (not .def_216))) (let ((.def_218 (or A2 .def_217))) (let ((.def_219 (or .def_15 A6))) (let ((.def_220 (not .def_219))) (let ((.def_221 (or .def_220 .def_218))) (let ((.def_222 (+ .def_143 .def_52))) (let ((.def_223 (< .def_222 (- 1)))) (let ((.def_224 (not .def_223))) (let ((.def_225 (and .def_224 .def_126))) (let ((.def_226 (not .def_225))) (let ((.def_227 (or .def_41 .def_41))) (let ((.def_228 (not .def_227))) (let ((.def_229 (or .def_228 .def_226))) (let ((.def_230 (or .def_229 .def_221))) (let ((.def_231 (and .def_230 .def_214))) (let ((.def_232 (not .def_231))) (let ((.def_233 (and .def_232 .def_202))) (let ((.def_234 (+ .def_44 .def_18))) (let ((.def_235 (< .def_234 1))) (let ((.def_236 (not .def_235))) (let ((.def_237 (or .def_1 .def_236))) (let ((.def_238 (and A1 A9))) (let ((.def_239 (and .def_238 .def_237))) (let ((.def_240 (not .def_239))) (let ((.def_241 (+ .def_111 .def_157))) (let ((.def_242 (< .def_241 (- 1)))) (let ((.def_243 (not .def_242))) (let ((.def_244 (and .def_243 .def_108))) (let ((.def_245 (< .def_111 1))) (let ((.def_246 (* (- 1) x5))) (let ((.def_247 (< .def_246 1))) (let ((.def_248 (and .def_247 .def_245))) (let ((.def_249 (not .def_248))) (let ((.def_250 (or .def_249 .def_244))) (let ((.def_251 (not .def_250))) (let ((.def_252 (or .def_251 .def_240))) (let ((.def_253 (not .def_252))) (let ((.def_254 (and A9 .def_247))) (let ((.def_255 (< .def_143 1))) (let ((.def_256 (not .def_255))) (let ((.def_257 (= .def_256 A3))) (let ((.def_258 (or .def_257 .def_254))) (let ((.def_259 (not .def_258))) (let ((.def_260 (or .def_256 A9))) (let ((.def_261 (not .def_260))) (let ((.def_262 (and A9 .def_141))) (let ((.def_263 (and .def_262 .def_261))) (let ((.def_264 (or .def_263 .def_259))) (let ((.def_265 (and .def_264 .def_253))) (let ((.def_266 (or A7 .def_0))) (let ((.def_267 (not .def_266))) (let ((.def_268 (+ .def_3 .def_77))) (let ((.def_269 (< .def_268 (- 1)))) (let ((.def_270 (not .def_269))) (let ((.def_271 (and .def_270 A3))) (let ((.def_272 (not .def_271))) (let ((.def_273 (and .def_272 .def_267))) (let ((.def_274 (or .def_0 .def_1))) (let ((.def_275 (and .def_175 .def_1))) (let ((.def_276 (or .def_275 .def_274))) (let ((.def_277 (or .def_276 .def_273))) (let ((.def_278 (and A2 .def_187))) (let ((.def_279 (+ .def_5 .def_24))) (let ((.def_280 (< .def_279 (- 1)))) (let ((.def_281 (+ .def_12 .def_27))) (let ((.def_282 (< .def_281 1))) (let ((.def_283 (not .def_282))) (let ((.def_284 (or .def_283 .def_280))) (let ((.def_285 (and .def_284 .def_278))) (let ((.def_286 (not .def_245))) (let ((.def_287 (or .def_286 .def_1))) (let ((.def_288 (not .def_287))) (let ((.def_289 (or .def_141 .def_108))) (let ((.def_290 (not .def_289))) (let ((.def_291 (and .def_290 .def_288))) (let ((.def_292 (not .def_291))) (let ((.def_293 (or .def_292 .def_285))) (let ((.def_294 (and .def_293 .def_277))) (let ((.def_295 (not .def_294))) (let ((.def_296 (or .def_295 .def_265))) (let ((.def_297 (or .def_296 .def_233))) (let ((.def_298 (not .def_297))) (let ((.def_299 (or .def_298 .def_173))) (let ((.def_300 (< .def_35 1))) (let ((.def_301 (not .def_300))) (let ((.def_302 (and .def_175 .def_301))) (let ((.def_303 (not .def_302))) (let ((.def_304 (< .def_77 (- 1)))) (let ((.def_305 (+ .def_189 .def_77))) (let ((.def_306 (< .def_305 1))) (let ((.def_307 (or .def_306 .def_304))) (let ((.def_308 (and .def_307 .def_303))) (let ((.def_309 (not .def_308))) (let ((.def_310 (and A4 .def_141))) (let ((.def_311 (< .def_27 (- 1)))) (let ((.def_312 (and .def_311 .def_162))) (let ((.def_313 (not .def_312))) (let ((.def_314 (or .def_313 .def_310))) (let ((.def_315 (not .def_314))) (let ((.def_316 (and .def_315 .def_309))) (let ((.def_317 (+ .def_77 .def_85))) (let ((.def_318 (< .def_317 (- 1)))) (let ((.def_319 (or A1 .def_318))) (let ((.def_320 (< .def_54 1))) (let ((.def_321 (and .def_126 .def_320))) (let ((.def_322 (not .def_321))) (let ((.def_323 (or .def_322 .def_319))) (let ((.def_324 (+ .def_54 .def_44))) (let ((.def_325 (< .def_324 1))) (let ((.def_326 (and A3 .def_325))) (let ((.def_327 (or .def_108 A9))) (let ((.def_328 (not .def_327))) (let ((.def_329 (or .def_328 .def_326))) (let ((.def_330 (not .def_329))) (let ((.def_331 (and .def_330 .def_323))) (let ((.def_332 (not .def_331))) (let ((.def_333 (and .def_332 .def_316))) (let ((.def_334 (not .def_333))) (let ((.def_335 (+ .def_77 .def_101))) (let ((.def_336 (< .def_335 1))) (let ((.def_337 (= .def_336 A6))) (let ((.def_338 (not .def_337))) (let ((.def_339 (+ .def_189 .def_24))) (let ((.def_340 (< .def_339 1))) (let ((.def_341 (not .def_340))) (let ((.def_342 (or A8 .def_341))) (let ((.def_343 (not .def_342))) (let ((.def_344 (and .def_343 .def_338))) (let ((.def_345 (not .def_344))) (let ((.def_346 (+ .def_54 .def_77))) (let ((.def_347 (< .def_346 (- 1)))) (let ((.def_348 (or .def_255 .def_347))) (let ((.def_349 (not .def_348))) (let ((.def_350 (+ .def_157 .def_3))) (let ((.def_351 (< .def_350 1))) (let ((.def_352 (or .def_351 A3))) (let ((.def_353 (not .def_352))) (let ((.def_354 (= .def_353 .def_349))) (let ((.def_355 (not .def_354))) (let ((.def_356 (and .def_355 .def_345))) (let ((.def_357 (and .def_45 A4))) (let ((.def_358 (or A2 .def_46))) (let ((.def_359 (or .def_358 .def_357))) (let ((.def_360 (not .def_359))) (let ((.def_361 (+ .def_31 .def_189))) (let ((.def_362 (< .def_361 (- 1)))) (let ((.def_363 (+ .def_85 .def_189))) (let ((.def_364 (< .def_363 1))) (let ((.def_365 (and .def_364 .def_362))) (let ((.def_366 (not .def_365))) (let ((.def_367 (< .def_85 1))) (let ((.def_368 (= .def_1 .def_367))) (let ((.def_369 (not .def_368))) (let ((.def_370 (and .def_369 .def_366))) (let ((.def_371 (and .def_370 .def_360))) (let ((.def_372 (or .def_371 .def_356))) (let ((.def_373 (not .def_372))) (let ((.def_374 (and .def_373 .def_334))) (let ((.def_375 (and A4 A6))) (let ((.def_376 (+ .def_101 .def_77))) (let ((.def_377 (< .def_376 (- 1)))) (let ((.def_378 (not .def_377))) (let ((.def_379 (and A1 .def_378))) (let ((.def_380 (not .def_379))) (let ((.def_381 (or .def_380 .def_375))) (let ((.def_382 (not .def_381))) (let ((.def_383 (< .def_85 (- 1)))) (let ((.def_384 (< .def_143 (- 1)))) (let ((.def_385 (or .def_384 .def_383))) (let ((.def_386 (+ .def_189 .def_54))) (let ((.def_387 (< .def_386 (- 1)))) (let ((.def_388 (not .def_387))) (let ((.def_389 (and .def_15 .def_388))) (let ((.def_390 (or .def_389 .def_385))) (let ((.def_391 (or .def_390 .def_382))) (let ((.def_392 (< .def_101 1))) (let ((.def_393 (not .def_392))) (let ((.def_394 (or .def_0 .def_393))) (let ((.def_395 (not .def_394))) (let ((.def_396 (+ .def_246 .def_18))) (let ((.def_397 (< .def_396 1))) (let ((.def_398 (and .def_108 .def_397))) (let ((.def_399 (= .def_398 .def_395))) (let ((.def_400 (< .def_5 (- 1)))) (let ((.def_401 (not .def_400))) (let ((.def_402 (and .def_401 .def_108))) (let ((.def_403 (and A8 .def_41))) (let ((.def_404 (not .def_403))) (let ((.def_405 (and .def_404 .def_402))) (let ((.def_406 (and .def_405 .def_399))) (let ((.def_407 (not .def_406))) (let ((.def_408 (and .def_407 .def_391))) (let ((.def_409 (not .def_408))) (let ((.def_410 (< .def_335 (- 1)))) (let ((.def_411 (not .def_410))) (let ((.def_412 (< .def_5 1))) (let ((.def_413 (not .def_412))) (let ((.def_414 (and .def_413 .def_411))) (let ((.def_415 (not .def_414))) (let ((.def_416 (< .def_157 1))) (let ((.def_417 (or .def_41 .def_416))) (let ((.def_418 (or .def_417 .def_415))) (let ((.def_419 (not .def_418))) (let ((.def_420 (or A7 A5))) (let ((.def_421 (not .def_420))) (let ((.def_422 (< .def_54 (- 1)))) (let ((.def_423 (or .def_422 .def_126))) (let ((.def_424 (and .def_423 .def_421))) (let ((.def_425 (or .def_424 .def_419))) (let ((.def_426 (+ .def_189 .def_143))) (let ((.def_427 (< .def_426 (- 1)))) (let ((.def_428 (or .def_427 .def_0))) (let ((.def_429 (not .def_428))) (let ((.def_430 (+ .def_101 .def_246))) (let ((.def_431 (< .def_430 1))) (let ((.def_432 (+ .def_189 .def_31))) (let ((.def_433 (< .def_432 (- 1)))) (let ((.def_434 (and .def_433 .def_431))) (let ((.def_435 (and .def_434 .def_429))) (let ((.def_436 (not .def_435))) (let ((.def_437 (+ .def_52 .def_35))) (let ((.def_438 (< .def_437 (- 1)))) (let ((.def_439 (not .def_438))) (let ((.def_440 (< .def_44 1))) (let ((.def_441 (and .def_440 .def_439))) (let ((.def_442 (+ .def_111 .def_31))) (let ((.def_443 (< .def_442 (- 1)))) (let ((.def_444 (and A8 .def_443))) (let ((.def_445 (and .def_444 .def_441))) (let ((.def_446 (and .def_445 .def_436))) (let ((.def_447 (or .def_446 .def_425))) (let ((.def_448 (or .def_447 .def_409))) (let ((.def_449 (or .def_448 .def_374))) (let ((.def_450 (not .def_449))) (let ((.def_451 (< .def_6 (- 1)))) (let ((.def_452 (not .def_451))) (let ((.def_453 (or .def_452 A6))) (let ((.def_454 (+ .def_24 .def_52))) (let ((.def_455 (< .def_454 (- 1)))) (let ((.def_456 (or .def_108 .def_455))) (let ((.def_457 (not .def_456))) (let ((.def_458 (or .def_457 .def_453))) (let ((.def_459 (not .def_458))) (let ((.def_460 (+ .def_143 .def_157))) (let ((.def_461 (< .def_460 (- 1)))) (let ((.def_462 (not .def_461))) (let ((.def_463 (and .def_462 A2))) (let ((.def_464 (or .def_141 A6))) (let ((.def_465 (not .def_464))) (let ((.def_466 (and .def_465 .def_463))) (let ((.def_467 (not .def_466))) (let ((.def_468 (or .def_467 .def_459))) (let ((.def_469 (+ .def_85 .def_54))) (let ((.def_470 (< .def_469 (- 1)))) (let ((.def_471 (< .def_189 1))) (let ((.def_472 (not .def_471))) (let ((.def_473 (= .def_472 .def_470))) (let ((.def_474 (not .def_473))) (let ((.def_475 (or .def_26 A2))) (let ((.def_476 (= .def_475 .def_474))) (let ((.def_477 (= A6 .def_304))) (let ((.def_478 (not .def_53))) (let ((.def_479 (< .def_18 1))) (let ((.def_480 (not .def_479))) (let ((.def_481 (= .def_480 .def_478))) (let ((.def_482 (not .def_481))) (let ((.def_483 (and .def_482 .def_477))) (let ((.def_484 (not .def_483))) (let ((.def_485 (and .def_484 .def_476))) (let ((.def_486 (and .def_485 .def_468))) (let ((.def_487 (not .def_486))) (let ((.def_488 (+ .def_52 .def_12))) (let ((.def_489 (< .def_488 (- 1)))) (let ((.def_490 (+ .def_3 .def_12))) (let ((.def_491 (< .def_490 1))) (let ((.def_492 (not .def_491))) (let ((.def_493 (or .def_492 .def_489))) (let ((.def_494 (not .def_493))) (let ((.def_495 (+ .def_189 .def_6))) (let ((.def_496 (< .def_495 (- 1)))) (let ((.def_497 (and A7 .def_496))) (let ((.def_498 (not .def_497))) (let ((.def_499 (or .def_498 .def_494))) (let ((.def_500 (not .def_499))) (let ((.def_501 (and .def_1 .def_187))) (let ((.def_502 (and A2 A7))) (let ((.def_503 (not .def_502))) (let ((.def_504 (and .def_503 .def_501))) (let ((.def_505 (and .def_504 .def_500))) (let ((.def_506 (and A4 .def_311))) (let ((.def_507 (or .def_41 A1))) (let ((.def_508 (not .def_507))) (let ((.def_509 (and .def_508 .def_506))) (let ((.def_510 (= .def_15 .def_15))) (let ((.def_511 (not .def_510))) (let ((.def_512 (= .def_511 .def_254))) (let ((.def_513 (not .def_512))) (let ((.def_514 (and .def_513 .def_509))) (let ((.def_515 (and .def_514 .def_505))) (let ((.def_516 (not .def_515))) (let ((.def_517 (and .def_516 .def_487))) (let ((.def_518 (not .def_517))) (let ((.def_519 (= .def_141 .def_74))) (let ((.def_520 (+ .def_52 .def_54))) (let ((.def_521 (< .def_520 (- 1)))) (let ((.def_522 (not .def_521))) (let ((.def_523 (or .def_522 A8))) (let ((.def_524 (not .def_523))) (let ((.def_525 (= .def_524 .def_519))) (let ((.def_526 (not .def_311))) (let ((.def_527 (and A9 .def_526))) (let ((.def_528 (not .def_527))) (let ((.def_529 (< .def_3 (- 1)))) (let ((.def_530 (not .def_529))) (let ((.def_531 (and A6 .def_530))) (let ((.def_532 (not .def_531))) (let ((.def_533 (or .def_532 .def_528))) (let ((.def_534 (= .def_533 .def_525))) (let ((.def_535 (not .def_534))) (let ((.def_536 (< .def_246 (- 1)))) (let ((.def_537 (or .def_536 .def_141))) (let ((.def_538 (not .def_537))) (let ((.def_539 (+ .def_27 .def_3))) (let ((.def_540 (< .def_539 1))) (let ((.def_541 (not .def_540))) (let ((.def_542 (not .def_4))) (let ((.def_543 (or .def_542 .def_541))) (let ((.def_544 (and .def_543 .def_538))) (let ((.def_545 (not .def_544))) (let ((.def_546 (and A0 .def_175))) (let ((.def_547 (not .def_546))) (let ((.def_548 (and .def_383 .def_137))) (let ((.def_549 (and .def_548 .def_547))) (let ((.def_550 (and .def_549 .def_545))) (let ((.def_551 (not .def_550))) (let ((.def_552 (or .def_551 .def_535))) (let ((.def_553 (not .def_552))) (let ((.def_554 (= .def_162 A7))) (let ((.def_555 (not .def_554))) (let ((.def_556 (or .def_137 A1))) (let ((.def_557 (not .def_556))) (let ((.def_558 (and .def_557 .def_555))) (let ((.def_559 (+ .def_3 .def_85))) (let ((.def_560 (< .def_559 1))) (let ((.def_561 (< .def_111 (- 1)))) (let ((.def_562 (not .def_561))) (let ((.def_563 (or .def_562 .def_560))) (let ((.def_564 (not .def_563))) (let ((.def_565 (+ .def_5 .def_12))) (let ((.def_566 (< .def_565 1))) (let ((.def_567 (not .def_566))) (let ((.def_568 (+ .def_143 .def_24))) (let ((.def_569 (< .def_568 (- 1)))) (let ((.def_570 (not .def_569))) (let ((.def_571 (and .def_570 .def_567))) (let ((.def_572 (not .def_571))) (let ((.def_573 (or .def_572 .def_564))) (let ((.def_574 (or .def_573 .def_558))) (let ((.def_575 (not .def_574))) (let ((.def_576 (+ .def_246 .def_52))) (let ((.def_577 (< .def_576 1))) (let ((.def_578 (not .def_577))) (let ((.def_579 (or A0 .def_578))) (let ((.def_580 (< .def_12 (- 1)))) (let ((.def_581 (not .def_580))) (let ((.def_582 (+ .def_5 .def_27))) (let ((.def_583 (< .def_582 (- 1)))) (let ((.def_584 (and .def_583 .def_581))) (let ((.def_585 (and .def_584 .def_579))) (let ((.def_586 (not .def_585))) (let ((.def_587 (= A6 .def_243))) (let ((.def_588 (not .def_587))) (let ((.def_589 (and .def_15 .def_137))) (let ((.def_590 (and .def_589 .def_588))) (let ((.def_591 (not .def_590))) (let ((.def_592 (or .def_591 .def_586))) (let ((.def_593 (and .def_592 .def_575))) (let ((.def_594 (or .def_593 .def_553))) (let ((.def_595 (not .def_594))) (let ((.def_596 (or .def_595 .def_518))) (let ((.def_597 (= .def_596 .def_450))) (let ((.def_598 (and .def_597 .def_299))) (let ((.def_599 (<= x9 1))) (let ((.def_600 (<= 0 x9))) (let ((.def_601 (<= x8 1))) (let ((.def_602 (<= 0 x8))) (let ((.def_603 (<= x7 1))) (let ((.def_604 (<= 0 x7))) (let ((.def_605 (<= x6 1))) (let ((.def_606 (<= 0 x6))) (let ((.def_607 (<= x5 1))) (let ((.def_608 (<= 0 x5))) (let ((.def_609 (<= x4 1))) (let ((.def_610 (<= 0 x4))) (let ((.def_611 (<= x3 1))) (let ((.def_612 (<= 0 x3))) (let ((.def_613 (<= x2 1))) (let ((.def_614 (<= 0 x2))) (let ((.def_615 (<= x1 1))) (let ((.def_616 (<= 0 x1))) (let ((.def_617 (<= x0 1))) (let ((.def_618 (<= 0 x0))) (let ((.def_619 (and .def_618 .def_617 .def_616 .def_615 .def_614 .def_613 .def_612 .def_611 .def_610 .def_609 .def_608 .def_607 .def_606 .def_605 .def_604 .def_603 .def_602 .def_601 .def_600 .def_599 .def_598))) .def_619)))))))))))))))))))))))))))))))))))))))))))))))))))))))))))))))))))))))))))))))))))))))))))))))))))))))))))))))))))))))))))))))))))))))))))))))))))))))))))))))))))))))))))))))))))))))))))))))))))))))))))))))))))))))))))))))))))))))))))))))))))))))))))))))))))))))))))))))))))))))))))))))))))))))))))))))))))))))))))))))))))))))))))))))))))))))))))))))))))))))))))))))))))))))))))))))))))))))))))))))))))))))))))))))))))))))))))))))))))))))))))))))))))))))))))))))))))))))))))))))))))))))))))))))))))))))))))))))))))))))))))))))))))))))))))))))))))))))))))))))))))))))))))))))))))))))))))))))))))))))))))))))))))))))))))))
(check-sat)
